************************************************************************
file with basedata            : mm55_.bas
initial value random generator: 1647245125
************************************************************************
projects                      :  1
jobs (incl. supersource/sink ):  12
horizon                       :  81
RESOURCES
  - renewable                 :  2   R
  - nonrenewable              :  2   N
  - doubly constrained        :  0   D
************************************************************************
PROJECT INFORMATION:
pronr.  #jobs rel.date duedate tardcost  MPM-Time
    1     10      0       12        4       12
************************************************************************
PRECEDENCE RELATIONS:
jobnr.    #modes  #successors   successors
   0        1          3           1   2   3
   1        3          3           4   5   6
   2        3          2           5  10
   3        3          1           5
   4        3          1           9
   5        3          1           7
   6        3          3           7   8  10
   7        3          1           9
   8        3          1          11
   9        3          1          11
  10        3          1          11
  11        1          0        
************************************************************************
REQUESTS/DURATIONS:
jobnr. mode duration  R 1  R 2  R 3  R 4  E(W 1)  E(W 2)
------------------------------------------------------------------------
  0      1     0       0    0    0    0     0       0
  1      1     3       7    6    6    8    39      42
  2      1     5       9    9    2    7    90      45
  3      1     1       5    7    9    5    12      14
  4      1     2      10    5    5    5    30      20
  5      1     1       5   10    9    9    15      18
  6      1     4       3    5    4    9    32      52
  7      1     2       6    3    5    9    18      28
  8      1     5       6    9    7    7    75      70
  9      1     1       3    6    9    5     9      14
 10      1     2       5    4    5    9    18      28
 11      1     0       0    0    0    0     0       0
************************************************************************
RESOURCEAVAILABILITIES:
  R 1  R 2
   34   121
************************************************************************
RESOURCE LIMITS:
jobnr.  l(R 1)  u(R 1)  l(R 2)  u(R 2)
------------------------------------------------------------------------
  0        0       0       0       0
  1        7      13       7      14
  2       10      18       5       9
  3        7      12       8      14
  4        8      15       6      10
  5        8      15      10      18
  6        5       8       7      13
  7        5       9       8      14
  8        8      15       8      14
  9        5       9       8      14
 10        5       9       8      14
 11        0       0       0       0
************************************************************************
SCENARIOS:
------------------------------------------------------------------------
RESOURCE k = 1
s = 1: (0, 41, 52, 10, 38, 15, 27, 18, 87, 8, 14, 0)
s = 2: (0, 51, 53, 8, 40, 16, 22, 20, 67, 10, 12, 0)
s = 3: (0, 59, 110, 8, 29, 12, 44, 11, 53, 9, 20, 0)
s = 4: (0, 27, 67, 15, 32, 23, 30, 22, 120, 11, 14, 0)
s = 5: (0, 24, 112, 21, 23, 17, 26, 24, 99, 8, 18, 0)
s = 6: (0, 39, 49, 9, 23, 24, 40, 27, 55, 6, 20, 0)
s = 7: (0, 22, 93, 15, 38, 15, 37, 18, 89, 7, 12, 0)
s = 8: (0, 25, 103, 11, 47, 12, 38, 21, 96, 13, 12, 0)
s = 9: (0, 34, 108, 15, 30, 10, 32, 17, 122, 8, 23, 0)
s = 10: (0, 43, 64, 13, 25, 14, 27, 19, 74, 7, 15, 0)
s = 11: (0, 38, 123, 9, 29, 18, 22, 22, 60, 11, 25, 0)
s = 12: (0, 40, 100, 10, 25, 14, 38, 22, 95, 6, 27, 0)
s = 13: (0, 54, 101, 14, 32, 11, 24, 11, 67, 8, 19, 0)
s = 14: (0, 56, 98, 16, 39, 10, 29, 20, 80, 9, 14, 0)
s = 15: (0, 48, 157, 10, 31, 23, 20, 22, 82, 9, 18, 0)
s = 16: (0, 43, 66, 11, 29, 18, 23, 13, 44, 7, 26, 0)
s = 17: (0, 27, 86, 14, 29, 15, 28, 21, 99, 12, 20, 0)
s = 18: (0, 66, 108, 19, 40, 15, 42, 25, 69, 15, 14, 0)
s = 19: (0, 22, 90, 20, 28, 21, 25, 26, 59, 7, 27, 0)
s = 20: (0, 43, 67, 18, 21, 11, 35, 26, 110, 9, 20, 0)
s = 21: (0, 32, 54, 8, 25, 16, 51, 18, 63, 8, 17, 0)
s = 22: (0, 59, 50, 7, 21, 15, 39, 20, 77, 6, 12, 0)
s = 23: (0, 31, 105, 14, 36, 17, 25, 25, 91, 8, 17, 0)
s = 24: (0, 28, 61, 12, 41, 18, 23, 14, 92, 14, 25, 0)
s = 25: (0, 34, 62, 8, 47, 12, 38, 15, 53, 8, 19, 0)
s = 26: (0, 45, 78, 12, 23, 27, 56, 13, 130, 9, 13, 0)
s = 27: (0, 43, 67, 8, 19, 11, 31, 22, 67, 11, 11, 0)
s = 28: (0, 40, 124, 13, 24, 11, 33, 13, 56, 8, 12, 0)
s = 29: (0, 69, 76, 10, 25, 16, 18, 29, 85, 12, 17, 0)
s = 30: (0, 37, 71, 15, 32, 11, 24, 15, 73, 10, 15, 0)
s = 31: (0, 54, 106, 10, 19, 10, 38, 11, 89, 14, 23, 0)
s = 32: (0, 27, 112, 14, 32, 24, 52, 13, 70, 7, 21, 0)
s = 33: (0, 55, 60, 11, 26, 14, 30, 27, 85, 12, 16, 0)
s = 34: (0, 25, 71, 16, 38, 14, 22, 20, 76, 13, 23, 0)
s = 35: (0, 38, 139, 15, 48, 14, 43, 23, 82, 11, 19, 0)
s = 36: (0, 29, 90, 8, 26, 18, 23, 19, 55, 12, 22, 0)
s = 37: (0, 28, 96, 9, 35, 18, 33, 19, 91, 10, 17, 0)
s = 38: (0, 51, 79, 14, 37, 11, 50, 15, 71, 8, 16, 0)
s = 39: (0, 40, 108, 14, 28, 12, 32, 14, 105, 15, 22, 0)
s = 40: (0, 38, 124, 12, 36, 16, 41, 17, 103, 9, 19, 0)
s = 41: (0, 29, 63, 12, 30, 17, 44, 21, 59, 10, 24, 0)
s = 42: (0, 44, 56, 15, 23, 13, 44, 17, 106, 15, 15, 0)
s = 43: (0, 28, 108, 14, 27, 16, 27, 14, 42, 14, 14, 0)
s = 44: (0, 46, 75, 13, 25, 21, 44, 17, 70, 8, 19, 0)
s = 45: (0, 32, 116, 10, 39, 12, 38, 16, 83, 7, 23, 0)
s = 46: (0, 37, 83, 8, 18, 10, 36, 19, 52, 8, 10, 0)
s = 47: (0, 67, 124, 10, 37, 18, 30, 17, 43, 6, 27, 0)
s = 48: (0, 37, 114, 9, 41, 11, 21, 19, 107, 12, 11, 0)
s = 49: (0, 57, 52, 9, 18, 18, 25, 20, 63, 8, 21, 0)
s = 50: (0, 66, 64, 8, 21, 11, 30, 15, 108, 8, 29, 0)
s = 51: (0, 46, 79, 16, 28, 22, 34, 14, 52, 11, 13, 0)
s = 52: (0, 32, 65, 17, 32, 17, 35, 18, 88, 7, 20, 0)
s = 53: (0, 45, 97, 9, 25, 17, 26, 18, 82, 9, 14, 0)
s = 54: (0, 33, 129, 16, 25, 12, 27, 22, 54, 14, 20, 0)
s = 55: (0, 28, 140, 13, 37, 11, 18, 23, 76, 9, 31, 0)
s = 56: (0, 52, 147, 9, 43, 16, 45, 19, 84, 10, 16, 0)
s = 57: (0, 42, 81, 10, 39, 15, 31, 20, 83, 16, 24, 0)
s = 58: (0, 40, 71, 10, 30, 11, 36, 18, 71, 17, 21, 0)
s = 59: (0, 42, 104, 14, 42, 13, 23, 19, 77, 9, 22, 0)
s = 60: (0, 32, 105, 10, 33, 10, 26, 15, 98, 12, 23, 0)
s = 61: (0, 57, 97, 10, 40, 21, 41, 12, 55, 10, 18, 0)
s = 62: (0, 51, 118, 12, 21, 15, 17, 11, 53, 7, 26, 0)
s = 63: (0, 44, 65, 15, 33, 9, 30, 11, 60, 11, 14, 0)
s = 64: (0, 39, 57, 7, 42, 12, 27, 28, 97, 12, 14, 0)
s = 65: (0, 38, 77, 11, 18, 12, 26, 14, 98, 9, 15, 0)
s = 66: (0, 35, 63, 19, 32, 19, 34, 13, 65, 14, 21, 0)
s = 67: (0, 29, 72, 18, 40, 15, 26, 19, 100, 10, 24, 0)
s = 68: (0, 26, 119, 13, 30, 15, 21, 15, 66, 8, 17, 0)
s = 69: (0, 65, 90, 9, 30, 13, 54, 15, 64, 11, 13, 0)
s = 70: (0, 42, 96, 11, 33, 13, 22, 13, 69, 10, 10, 0)
s = 71: (0, 35, 76, 13, 34, 14, 53, 17, 109, 11, 11, 0)
s = 72: (0, 45, 107, 11, 19, 18, 20, 17, 79, 8, 15, 0)
s = 73: (0, 51, 70, 8, 39, 10, 34, 15, 82, 11, 18, 0)
s = 74: (0, 44, 65, 11, 59, 24, 28, 18, 79, 9, 16, 0)
s = 75: (0, 62, 53, 8, 26, 14, 39, 24, 72, 9, 13, 0)
s = 76: (0, 42, 70, 16, 37, 10, 26, 13, 78, 8, 10, 0)
s = 77: (0, 38, 86, 8, 32, 14, 25, 23, 69, 11, 20, 0)
s = 78: (0, 35, 143, 9, 25, 14, 51, 15, 143, 6, 14, 0)
s = 79: (0, 28, 130, 17, 33, 13, 31, 14, 76, 10, 10, 0)
s = 80: (0, 32, 63, 12, 30, 25, 36, 20, 50, 11, 14, 0)
s = 81: (0, 63, 84, 11, 22, 12, 20, 26, 74, 9, 13, 0)
s = 82: (0, 25, 71, 10, 23, 18, 29, 24, 63, 12, 34, 0)
s = 83: (0, 40, 65, 13, 24, 21, 26, 17, 112, 10, 21, 0)
s = 84: (0, 44, 74, 13, 30, 25, 34, 13, 98, 6, 34, 0)
s = 85: (0, 56, 141, 15, 24, 17, 36, 28, 118, 8, 14, 0)
s = 86: (0, 23, 81, 8, 28, 15, 31, 24, 82, 11, 21, 0)
s = 87: (0, 43, 153, 21, 25, 18, 27, 22, 118, 8, 12, 0)
s = 88: (0, 46, 75, 10, 20, 23, 33, 27, 46, 10, 16, 0)
s = 89: (0, 29, 130, 15, 26, 14, 25, 15, 75, 7, 19, 0)
s = 90: (0, 45, 92, 10, 28, 10, 46, 16, 86, 8, 13, 0)
s = 91: (0, 32, 75, 17, 21, 23, 41, 14, 74, 6, 14, 0)
s = 92: (0, 44, 67, 14, 30, 14, 20, 13, 63, 8, 18, 0)
s = 93: (0, 76, 69, 11, 27, 16, 22, 16, 49, 13, 18, 0)
s = 94: (0, 60, 91, 11, 33, 23, 21, 19, 137, 8, 13, 0)
s = 95: (0, 37, 67, 14, 30, 13, 27, 18, 51, 8, 18, 0)
s = 96: (0, 32, 64, 15, 20, 14, 40, 18, 70, 12, 19, 0)
s = 97: (0, 29, 89, 18, 49, 21, 29, 12, 83, 9, 17, 0)
s = 98: (0, 38, 103, 15, 21, 15, 44, 12, 61, 12, 21, 0)
s = 99: (0, 34, 149, 12, 27, 15, 47, 15, 45, 9, 26, 0)
s = 100: (0, 67, 80, 12, 20, 20, 22, 19, 66, 8, 25, 0)
s = 101: (0, 43, 87, 13, 36, 18, 19, 14, 75, 9, 19, 0)
s = 102: (0, 25, 100, 16, 27, 14, 22, 19, 46, 10, 13, 0)
s = 103: (0, 29, 85, 12, 17, 13, 28, 32, 117, 10, 12, 0)
s = 104: (0, 34, 127, 12, 37, 16, 32, 25, 100, 8, 17, 0)
s = 105: (0, 33, 76, 11, 26, 12, 29, 15, 105, 8, 24, 0)
s = 106: (0, 52, 102, 9, 21, 11, 44, 16, 72, 12, 20, 0)
s = 107: (0, 56, 139, 15, 35, 23, 45, 15, 63, 9, 10, 0)
s = 108: (0, 69, 66, 12, 25, 13, 33, 18, 83, 11, 19, 0)
s = 109: (0, 43, 103, 9, 37, 15, 29, 21, 80, 10, 15, 0)
s = 110: (0, 30, 63, 9, 27, 9, 25, 17, 77, 13, 20, 0)
s = 111: (0, 29, 109, 16, 34, 19, 43, 18, 88, 7, 14, 0)
s = 112: (0, 28, 56, 14, 52, 8, 35, 12, 63, 9, 17, 0)
s = 113: (0, 68, 58, 11, 28, 10, 21, 20, 55, 10, 18, 0)
s = 114: (0, 27, 60, 15, 39, 18, 29, 17, 88, 8, 22, 0)
s = 115: (0, 51, 48, 15, 27, 11, 27, 18, 68, 9, 16, 0)
s = 116: (0, 30, 108, 14, 27, 11, 35, 13, 77, 12, 22, 0)
s = 117: (0, 27, 94, 8, 17, 11, 22, 14, 42, 12, 15, 0)
s = 118: (0, 26, 110, 10, 23, 26, 27, 15, 72, 8, 15, 0)
s = 119: (0, 46, 89, 11, 35, 10, 43, 21, 85, 8, 12, 0)
s = 120: (0, 46, 109, 14, 33, 24, 32, 26, 89, 9, 12, 0)
s = 121: (0, 45, 85, 13, 33, 23, 40, 12, 78, 9, 20, 0)
s = 122: (0, 26, 119, 8, 28, 13, 25, 13, 47, 13, 12, 0)
s = 123: (0, 30, 58, 9, 54, 27, 21, 22, 104, 7, 15, 0)
s = 124: (0, 39, 86, 11, 20, 16, 32, 20, 68, 11, 20, 0)
s = 125: (0, 28, 72, 11, 27, 19, 19, 25, 100, 10, 21, 0)
s = 126: (0, 41, 119, 12, 30, 10, 35, 12, 76, 11, 19, 0)
s = 127: (0, 44, 84, 13, 19, 22, 20, 19, 70, 7, 16, 0)
s = 128: (0, 65, 86, 7, 34, 10, 26, 15, 76, 8, 15, 0)
s = 129: (0, 39, 86, 10, 33, 9, 36, 22, 72, 9, 35, 0)
s = 130: (0, 45, 94, 10, 30, 16, 43, 18, 100, 8, 21, 0)
s = 131: (0, 61, 80, 11, 49, 20, 43, 11, 98, 7, 19, 0)
s = 132: (0, 50, 125, 10, 46, 20, 34, 16, 92, 9, 14, 0)
s = 133: (0, 54, 87, 11, 28, 11, 34, 22, 92, 12, 12, 0)
s = 134: (0, 37, 114, 14, 28, 9, 23, 10, 116, 9, 12, 0)
s = 135: (0, 24, 83, 16, 35, 15, 18, 16, 133, 8, 12, 0)
s = 136: (0, 30, 92, 14, 35, 14, 27, 13, 72, 14, 29, 0)
s = 137: (0, 62, 82, 14, 31, 14, 50, 16, 85, 7, 19, 0)
s = 138: (0, 42, 155, 9, 30, 13, 27, 19, 56, 16, 26, 0)
s = 139: (0, 35, 107, 16, 25, 10, 32, 24, 46, 6, 15, 0)
s = 140: (0, 48, 121, 9, 38, 20, 52, 15, 43, 13, 15, 0)
s = 141: (0, 42, 119, 11, 51, 14, 33, 21, 81, 8, 20, 0)
s = 142: (0, 34, 71, 13, 43, 25, 36, 28, 95, 8, 19, 0)
s = 143: (0, 33, 95, 12, 27, 8, 22, 14, 102, 10, 17, 0)
s = 144: (0, 35, 89, 17, 17, 27, 42, 22, 41, 13, 19, 0)
s = 145: (0, 39, 135, 9, 42, 27, 30, 14, 54, 11, 16, 0)
s = 146: (0, 24, 71, 8, 24, 11, 20, 19, 42, 9, 11, 0)
s = 147: (0, 47, 49, 14, 26, 16, 30, 15, 114, 14, 20, 0)
s = 148: (0, 47, 70, 15, 29, 10, 50, 25, 92, 6, 18, 0)
s = 149: (0, 31, 62, 12, 20, 21, 42, 20, 53, 8, 20, 0)
s = 150: (0, 23, 77, 9, 30, 14, 22, 16, 61, 8, 14, 0)
s = 151: (0, 35, 81, 9, 46, 18, 29, 16, 95, 11, 18, 0)
s = 152: (0, 30, 124, 9, 30, 16, 20, 27, 50, 11, 19, 0)
s = 153: (0, 43, 86, 15, 24, 17, 20, 14, 56, 11, 15, 0)
s = 154: (0, 38, 127, 15, 29, 18, 33, 20, 77, 6, 13, 0)
s = 155: (0, 43, 62, 14, 33, 12, 22, 19, 63, 6, 29, 0)
s = 156: (0, 29, 114, 14, 25, 17, 38, 25, 95, 10, 22, 0)
s = 157: (0, 47, 98, 12, 50, 21, 48, 21, 117, 6, 24, 0)
s = 158: (0, 48, 104, 19, 16, 18, 22, 11, 76, 15, 13, 0)
s = 159: (0, 35, 115, 24, 21, 11, 38, 17, 56, 13, 16, 0)
s = 160: (0, 59, 78, 10, 37, 10, 25, 31, 58, 8, 19, 0)
s = 161: (0, 37, 75, 11, 41, 14, 45, 17, 96, 12, 14, 0)
s = 162: (0, 48, 108, 10, 28, 11, 36, 16, 59, 9, 11, 0)
s = 163: (0, 48, 98, 11, 47, 9, 29, 16, 111, 10, 24, 0)
s = 164: (0, 24, 93, 15, 21, 18, 48, 14, 54, 8, 13, 0)
s = 165: (0, 37, 55, 16, 31, 12, 48, 14, 106, 10, 22, 0)
s = 166: (0, 22, 104, 11, 24, 16, 44, 14, 73, 13, 23, 0)
s = 167: (0, 49, 66, 14, 45, 9, 36, 30, 89, 8, 19, 0)
s = 168: (0, 36, 100, 11, 29, 13, 25, 25, 91, 5, 20, 0)
s = 169: (0, 37, 93, 14, 24, 16, 30, 23, 95, 8, 22, 0)
s = 170: (0, 37, 94, 11, 28, 14, 24, 17, 87, 9, 18, 0)
s = 171: (0, 57, 150, 9, 39, 14, 41, 17, 93, 6, 19, 0)
s = 172: (0, 30, 68, 8, 29, 24, 38, 17, 71, 5, 18, 0)
s = 173: (0, 32, 78, 12, 26, 10, 44, 13, 69, 10, 15, 0)
s = 174: (0, 33, 90, 15, 32, 10, 20, 32, 88, 12, 31, 0)
s = 175: (0, 40, 52, 9, 41, 17, 57, 33, 119, 9, 12, 0)
s = 176: (0, 30, 68, 16, 43, 12, 26, 10, 47, 10, 19, 0)
s = 177: (0, 40, 76, 9, 20, 12, 34, 23, 76, 8, 17, 0)
s = 178: (0, 31, 100, 16, 27, 20, 35, 27, 49, 9, 27, 0)
s = 179: (0, 60, 78, 9, 45, 18, 26, 17, 103, 11, 16, 0)
s = 180: (0, 35, 72, 11, 23, 16, 37, 18, 63, 9, 23, 0)
s = 181: (0, 29, 70, 12, 33, 20, 58, 14, 95, 16, 22, 0)
s = 182: (0, 42, 69, 9, 20, 19, 32, 15, 88, 13, 33, 0)
s = 183: (0, 39, 104, 9, 25, 16, 45, 13, 87, 9, 12, 0)
s = 184: (0, 55, 48, 18, 29, 14, 41, 12, 128, 12, 13, 0)
s = 185: (0, 26, 63, 11, 25, 19, 44, 22, 74, 7, 16, 0)
s = 186: (0, 38, 132, 8, 19, 15, 32, 21, 49, 6, 14, 0)
s = 187: (0, 30, 162, 18, 29, 18, 50, 19, 76, 9, 12, 0)
s = 188: (0, 34, 76, 11, 25, 13, 33, 14, 58, 8, 15, 0)
s = 189: (0, 67, 57, 10, 22, 11, 25, 22, 116, 13, 17, 0)
s = 190: (0, 25, 175, 17, 24, 14, 35, 11, 119, 10, 23, 0)
s = 191: (0, 25, 57, 12, 23, 14, 26, 19, 68, 8, 16, 0)
s = 192: (0, 53, 84, 12, 27, 17, 42, 11, 78, 8, 18, 0)
s = 193: (0, 39, 86, 17, 32, 19, 38, 14, 66, 11, 22, 0)
s = 194: (0, 44, 103, 11, 23, 19, 37, 16, 119, 6, 17, 0)
s = 195: (0, 27, 78, 13, 23, 20, 39, 12, 72, 12, 13, 0)
s = 196: (0, 58, 149, 9, 21, 24, 18, 11, 104, 10, 14, 0)
s = 197: (0, 34, 63, 12, 18, 11, 35, 12, 77, 9, 26, 0)
s = 198: (0, 30, 70, 17, 27, 22, 20, 16, 93, 8, 20, 0)
s = 199: (0, 38, 108, 9, 39, 11, 35, 26, 83, 7, 22, 0)
s = 200: (0, 41, 73, 10, 25, 12, 36, 16, 38, 12, 17, 0)
------------------------------------------------------------------------
RESOURCE k = 2
s = 1: (0, 44, 26, 12, 26, 18, 44, 28, 81, 13, 22, 0)
s = 2: (0, 55, 27, 9, 27, 19, 35, 31, 63, 16, 19, 0)
s = 3: (0, 64, 55, 10, 20, 14, 70, 17, 49, 14, 30, 0)
s = 4: (0, 29, 34, 17, 22, 27, 48, 34, 112, 17, 22, 0)
s = 5: (0, 26, 56, 24, 16, 21, 42, 37, 93, 12, 27, 0)
s = 6: (0, 42, 25, 11, 16, 29, 64, 41, 51, 9, 31, 0)
s = 7: (0, 23, 47, 17, 25, 17, 59, 28, 83, 10, 19, 0)
s = 8: (0, 27, 52, 13, 31, 14, 62, 32, 90, 21, 19, 0)
s = 9: (0, 37, 54, 17, 20, 12, 52, 26, 114, 13, 35, 0)
s = 10: (0, 46, 32, 15, 17, 17, 44, 29, 69, 10, 24, 0)
s = 11: (0, 41, 62, 10, 19, 22, 35, 33, 56, 17, 39, 0)
s = 12: (0, 44, 50, 12, 17, 16, 62, 33, 89, 9, 41, 0)
s = 13: (0, 58, 51, 16, 22, 14, 39, 17, 63, 12, 29, 0)
s = 14: (0, 60, 49, 19, 26, 12, 46, 32, 75, 13, 22, 0)
s = 15: (0, 51, 79, 12, 21, 28, 33, 35, 76, 13, 28, 0)
s = 16: (0, 46, 33, 12, 19, 21, 38, 20, 41, 11, 40, 0)
s = 17: (0, 29, 43, 17, 19, 18, 45, 32, 93, 18, 31, 0)
s = 18: (0, 71, 54, 22, 27, 18, 69, 39, 64, 24, 22, 0)
s = 19: (0, 24, 45, 23, 19, 25, 40, 41, 55, 11, 42, 0)
s = 20: (0, 46, 34, 21, 14, 13, 57, 40, 103, 14, 31, 0)
s = 21: (0, 34, 27, 9, 17, 19, 83, 28, 59, 11, 26, 0)
s = 22: (0, 64, 25, 8, 14, 18, 63, 31, 72, 9, 18, 0)
s = 23: (0, 33, 53, 17, 24, 20, 41, 39, 85, 12, 26, 0)
s = 24: (0, 30, 31, 14, 27, 22, 36, 22, 86, 22, 39, 0)
s = 25: (0, 36, 31, 9, 31, 14, 62, 23, 50, 12, 30, 0)
s = 26: (0, 48, 39, 14, 16, 32, 91, 20, 122, 14, 20, 0)
s = 27: (0, 46, 34, 10, 13, 13, 50, 34, 62, 17, 17, 0)
s = 28: (0, 43, 62, 15, 16, 13, 53, 19, 53, 12, 18, 0)
s = 29: (0, 74, 38, 12, 17, 19, 29, 46, 79, 18, 26, 0)
s = 30: (0, 40, 36, 17, 22, 13, 38, 23, 68, 15, 23, 0)
s = 31: (0, 58, 53, 12, 13, 12, 61, 16, 84, 21, 36, 0)
s = 32: (0, 29, 56, 16, 22, 29, 84, 20, 65, 11, 32, 0)
s = 33: (0, 59, 30, 12, 17, 16, 49, 42, 79, 18, 25, 0)
s = 34: (0, 27, 36, 19, 26, 17, 35, 31, 71, 19, 36, 0)
s = 35: (0, 41, 70, 17, 32, 16, 69, 36, 76, 16, 29, 0)
s = 36: (0, 31, 45, 10, 18, 22, 37, 30, 51, 19, 33, 0)
s = 37: (0, 30, 48, 11, 23, 21, 53, 29, 85, 15, 27, 0)
s = 38: (0, 54, 40, 16, 25, 13, 80, 23, 66, 13, 25, 0)
s = 39: (0, 43, 54, 17, 19, 15, 52, 21, 98, 24, 34, 0)
s = 40: (0, 40, 62, 14, 24, 19, 66, 26, 96, 14, 30, 0)
s = 41: (0, 31, 32, 14, 20, 20, 71, 33, 55, 16, 36, 0)
s = 42: (0, 47, 28, 18, 15, 15, 72, 27, 99, 24, 22, 0)
s = 43: (0, 30, 54, 16, 18, 19, 44, 22, 40, 22, 22, 0)
s = 44: (0, 49, 38, 15, 17, 25, 71, 27, 65, 12, 30, 0)
s = 45: (0, 34, 58, 11, 26, 14, 61, 24, 78, 11, 35, 0)
s = 46: (0, 39, 42, 10, 12, 12, 59, 30, 48, 12, 16, 0)
s = 47: (0, 73, 62, 11, 25, 22, 49, 25, 41, 8, 41, 0)
s = 48: (0, 40, 57, 10, 28, 13, 34, 29, 100, 19, 17, 0)
s = 49: (0, 61, 26, 10, 12, 21, 40, 31, 59, 12, 32, 0)
s = 50: (0, 71, 32, 9, 14, 13, 48, 23, 101, 12, 45, 0)
s = 51: (0, 49, 40, 19, 19, 27, 56, 21, 48, 17, 20, 0)
s = 52: (0, 34, 33, 20, 22, 20, 57, 27, 82, 10, 30, 0)
s = 53: (0, 48, 49, 10, 17, 20, 42, 28, 76, 13, 22, 0)
s = 54: (0, 36, 65, 18, 17, 14, 44, 34, 50, 21, 31, 0)
s = 55: (0, 30, 70, 15, 25, 13, 29, 36, 71, 13, 48, 0)
s = 56: (0, 56, 74, 11, 29, 19, 73, 30, 78, 15, 24, 0)
s = 57: (0, 45, 41, 12, 26, 18, 51, 31, 78, 25, 38, 0)
s = 58: (0, 43, 36, 11, 20, 13, 58, 28, 66, 26, 33, 0)
s = 59: (0, 45, 52, 16, 28, 16, 37, 29, 72, 14, 35, 0)
s = 60: (0, 35, 53, 12, 22, 12, 43, 23, 91, 18, 35, 0)
s = 61: (0, 61, 49, 11, 27, 25, 66, 19, 51, 16, 27, 0)
s = 62: (0, 54, 59, 14, 14, 17, 27, 16, 50, 10, 39, 0)
s = 63: (0, 47, 33, 17, 22, 10, 48, 16, 56, 17, 21, 0)
s = 64: (0, 42, 29, 8, 28, 14, 43, 43, 91, 18, 22, 0)
s = 65: (0, 41, 39, 13, 12, 15, 41, 22, 92, 14, 22, 0)
s = 66: (0, 37, 32, 22, 21, 23, 55, 20, 61, 21, 33, 0)
s = 67: (0, 31, 36, 21, 27, 18, 42, 30, 93, 16, 37, 0)
s = 68: (0, 28, 60, 15, 20, 17, 33, 23, 62, 12, 27, 0)
s = 69: (0, 69, 45, 10, 20, 15, 88, 22, 59, 16, 20, 0)
s = 70: (0, 45, 48, 13, 22, 15, 35, 20, 64, 16, 16, 0)
s = 71: (0, 38, 38, 16, 23, 17, 85, 26, 102, 17, 17, 0)
s = 72: (0, 48, 54, 13, 13, 22, 33, 26, 74, 12, 23, 0)
s = 73: (0, 55, 35, 9, 26, 12, 54, 24, 77, 17, 28, 0)
s = 74: (0, 47, 33, 12, 40, 28, 45, 28, 74, 14, 25, 0)
s = 75: (0, 67, 27, 9, 17, 17, 63, 37, 67, 14, 21, 0)
s = 76: (0, 45, 35, 19, 25, 12, 42, 20, 73, 13, 15, 0)
s = 77: (0, 41, 43, 10, 21, 17, 41, 35, 65, 16, 31, 0)
s = 78: (0, 37, 72, 10, 17, 17, 83, 23, 133, 9, 21, 0)
s = 79: (0, 30, 65, 19, 22, 16, 51, 22, 71, 15, 15, 0)
s = 80: (0, 34, 32, 14, 20, 30, 58, 31, 47, 16, 21, 0)
s = 81: (0, 68, 42, 13, 15, 14, 33, 40, 69, 13, 20, 0)
s = 82: (0, 27, 36, 12, 15, 22, 47, 37, 59, 18, 52, 0)
s = 83: (0, 43, 33, 16, 16, 25, 42, 26, 104, 15, 33, 0)
s = 84: (0, 47, 37, 15, 20, 29, 54, 20, 91, 9, 52, 0)
s = 85: (0, 60, 71, 18, 16, 21, 58, 44, 110, 13, 22, 0)
s = 86: (0, 24, 41, 9, 19, 18, 49, 37, 77, 16, 32, 0)
s = 87: (0, 46, 77, 24, 17, 21, 44, 34, 110, 12, 18, 0)
s = 88: (0, 49, 38, 11, 14, 28, 54, 41, 43, 16, 24, 0)
s = 89: (0, 31, 65, 18, 18, 17, 41, 23, 70, 10, 30, 0)
s = 90: (0, 48, 46, 12, 19, 12, 74, 24, 80, 13, 20, 0)
s = 91: (0, 34, 38, 20, 14, 27, 66, 21, 69, 9, 22, 0)
s = 92: (0, 47, 34, 17, 20, 17, 33, 21, 59, 12, 28, 0)
s = 93: (0, 82, 35, 12, 18, 19, 36, 24, 46, 20, 27, 0)
s = 94: (0, 64, 46, 13, 22, 27, 34, 29, 128, 12, 20, 0)
s = 95: (0, 39, 34, 16, 20, 16, 44, 28, 48, 12, 28, 0)
s = 96: (0, 34, 32, 17, 14, 17, 64, 28, 65, 18, 29, 0)
s = 97: (0, 31, 45, 21, 33, 25, 47, 19, 78, 14, 26, 0)
s = 98: (0, 41, 52, 18, 14, 18, 70, 19, 57, 18, 32, 0)
s = 99: (0, 36, 75, 14, 18, 18, 76, 23, 42, 13, 41, 0)
s = 100: (0, 72, 40, 14, 13, 24, 35, 29, 61, 13, 38, 0)
s = 101: (0, 46, 44, 15, 24, 21, 30, 21, 70, 13, 29, 0)
s = 102: (0, 27, 50, 19, 18, 17, 35, 30, 43, 16, 21, 0)
s = 103: (0, 31, 43, 14, 11, 15, 45, 50, 109, 15, 18, 0)
s = 104: (0, 37, 64, 13, 25, 19, 52, 38, 93, 12, 26, 0)
s = 105: (0, 36, 38, 12, 18, 15, 47, 23, 98, 12, 37, 0)
s = 106: (0, 56, 51, 11, 14, 13, 71, 24, 67, 19, 31, 0)
s = 107: (0, 60, 70, 17, 23, 28, 74, 23, 59, 13, 15, 0)
s = 108: (0, 74, 33, 14, 17, 16, 53, 28, 77, 16, 29, 0)
s = 109: (0, 46, 52, 10, 25, 17, 47, 32, 75, 15, 24, 0)
s = 110: (0, 32, 32, 11, 18, 11, 41, 26, 72, 20, 31, 0)
s = 111: (0, 31, 55, 18, 23, 23, 70, 27, 82, 11, 22, 0)
s = 112: (0, 30, 28, 16, 35, 10, 57, 18, 59, 14, 26, 0)
s = 113: (0, 74, 29, 13, 19, 12, 34, 30, 51, 15, 28, 0)
s = 114: (0, 29, 30, 17, 26, 21, 47, 27, 82, 13, 34, 0)
s = 115: (0, 55, 24, 18, 18, 14, 44, 27, 63, 13, 25, 0)
s = 116: (0, 32, 54, 16, 18, 13, 56, 20, 72, 18, 34, 0)
s = 117: (0, 29, 47, 9, 12, 13, 35, 21, 40, 18, 23, 0)
s = 118: (0, 28, 55, 12, 16, 31, 43, 24, 67, 13, 23, 0)
s = 119: (0, 49, 45, 13, 23, 12, 69, 32, 79, 12, 18, 0)
s = 120: (0, 50, 55, 16, 22, 29, 51, 40, 83, 14, 18, 0)
s = 121: (0, 48, 43, 15, 22, 28, 64, 18, 73, 14, 31, 0)
s = 122: (0, 28, 60, 9, 19, 16, 40, 20, 44, 20, 18, 0)
s = 123: (0, 33, 29, 10, 36, 32, 34, 34, 97, 11, 23, 0)
s = 124: (0, 42, 43, 13, 14, 19, 51, 31, 63, 17, 31, 0)
s = 125: (0, 30, 36, 13, 18, 23, 31, 39, 94, 15, 32, 0)
s = 126: (0, 45, 60, 14, 20, 12, 57, 19, 71, 17, 30, 0)
s = 127: (0, 47, 42, 15, 13, 26, 33, 29, 65, 11, 24, 0)
s = 128: (0, 70, 43, 8, 23, 12, 42, 23, 71, 12, 23, 0)
s = 129: (0, 42, 43, 12, 22, 11, 58, 34, 68, 13, 54, 0)
s = 130: (0, 48, 47, 11, 20, 19, 70, 28, 93, 12, 32, 0)
s = 131: (0, 66, 40, 13, 33, 24, 70, 17, 92, 11, 30, 0)
s = 132: (0, 54, 63, 12, 31, 24, 55, 25, 86, 14, 21, 0)
s = 133: (0, 58, 44, 13, 19, 13, 54, 34, 86, 19, 18, 0)
s = 134: (0, 40, 57, 16, 19, 11, 37, 15, 108, 14, 19, 0)
s = 135: (0, 26, 42, 18, 24, 18, 28, 25, 124, 12, 18, 0)
s = 136: (0, 32, 46, 17, 24, 16, 43, 19, 67, 22, 45, 0)
s = 137: (0, 66, 41, 17, 21, 17, 81, 24, 80, 11, 29, 0)
s = 138: (0, 45, 78, 10, 20, 16, 44, 29, 52, 25, 41, 0)
s = 139: (0, 37, 54, 18, 17, 12, 52, 38, 43, 8, 23, 0)
s = 140: (0, 52, 61, 10, 26, 24, 85, 23, 40, 19, 22, 0)
s = 141: (0, 46, 60, 13, 34, 17, 54, 33, 75, 12, 31, 0)
s = 142: (0, 37, 36, 15, 29, 29, 58, 43, 89, 13, 29, 0)
s = 143: (0, 35, 48, 14, 18, 10, 35, 21, 95, 15, 26, 0)
s = 144: (0, 38, 45, 19, 12, 32, 68, 33, 38, 20, 30, 0)
s = 145: (0, 42, 68, 10, 28, 32, 49, 21, 50, 17, 25, 0)
s = 146: (0, 26, 36, 9, 16, 13, 33, 30, 40, 14, 16, 0)
s = 147: (0, 51, 25, 16, 18, 20, 49, 22, 107, 22, 30, 0)
s = 148: (0, 50, 35, 17, 19, 12, 81, 38, 86, 9, 28, 0)
s = 149: (0, 33, 31, 14, 13, 25, 69, 31, 49, 13, 30, 0)
s = 150: (0, 25, 39, 10, 20, 16, 35, 24, 57, 12, 21, 0)
s = 151: (0, 38, 41, 10, 31, 21, 46, 25, 89, 16, 28, 0)
s = 152: (0, 33, 62, 10, 20, 20, 32, 42, 47, 16, 29, 0)
s = 153: (0, 46, 43, 17, 16, 21, 33, 22, 52, 16, 23, 0)
s = 154: (0, 41, 64, 17, 20, 22, 53, 31, 72, 9, 19, 0)
s = 155: (0, 46, 31, 16, 22, 15, 36, 29, 59, 9, 44, 0)
s = 156: (0, 32, 57, 17, 17, 20, 62, 38, 89, 16, 35, 0)
s = 157: (0, 51, 49, 13, 34, 25, 77, 33, 109, 9, 38, 0)
s = 158: (0, 51, 52, 22, 11, 22, 35, 17, 71, 23, 19, 0)
s = 159: (0, 38, 58, 28, 14, 13, 61, 27, 52, 20, 25, 0)
s = 160: (0, 63, 39, 12, 25, 12, 40, 48, 55, 12, 30, 0)
s = 161: (0, 40, 38, 12, 28, 17, 73, 26, 89, 18, 21, 0)
s = 162: (0, 52, 54, 12, 19, 13, 58, 25, 55, 14, 17, 0)
s = 163: (0, 51, 49, 13, 31, 11, 47, 24, 103, 15, 36, 0)
s = 164: (0, 25, 47, 18, 14, 22, 77, 22, 50, 13, 20, 0)
s = 165: (0, 40, 28, 19, 21, 15, 78, 22, 99, 16, 34, 0)
s = 166: (0, 24, 52, 13, 16, 19, 72, 21, 68, 20, 35, 0)
s = 167: (0, 53, 33, 16, 30, 11, 59, 46, 84, 13, 29, 0)
s = 168: (0, 39, 50, 13, 19, 16, 40, 38, 85, 8, 30, 0)
s = 169: (0, 40, 47, 16, 16, 19, 48, 36, 89, 12, 33, 0)
s = 170: (0, 40, 47, 13, 19, 17, 38, 26, 81, 14, 28, 0)
s = 171: (0, 61, 75, 10, 26, 17, 66, 26, 86, 8, 30, 0)
s = 172: (0, 32, 34, 9, 19, 28, 61, 26, 66, 8, 28, 0)
s = 173: (0, 35, 39, 14, 18, 12, 72, 20, 64, 15, 23, 0)
s = 174: (0, 35, 45, 17, 21, 12, 32, 50, 82, 19, 48, 0)
s = 175: (0, 43, 26, 11, 28, 20, 93, 51, 111, 14, 18, 0)
s = 176: (0, 32, 34, 19, 29, 14, 41, 16, 44, 16, 29, 0)
s = 177: (0, 43, 38, 11, 13, 15, 55, 35, 71, 12, 26, 0)
s = 178: (0, 33, 50, 19, 18, 24, 56, 41, 46, 14, 42, 0)
s = 179: (0, 65, 39, 10, 30, 21, 42, 26, 97, 16, 25, 0)
s = 180: (0, 37, 36, 13, 15, 20, 60, 28, 59, 13, 36, 0)
s = 181: (0, 31, 35, 14, 22, 24, 93, 22, 89, 25, 34, 0)
s = 182: (0, 45, 35, 10, 13, 22, 52, 24, 82, 20, 51, 0)
s = 183: (0, 42, 52, 10, 17, 19, 72, 20, 82, 13, 18, 0)
s = 184: (0, 60, 24, 21, 20, 16, 67, 18, 120, 18, 21, 0)
s = 185: (0, 28, 32, 13, 17, 22, 71, 33, 70, 10, 25, 0)
s = 186: (0, 41, 66, 10, 13, 18, 51, 32, 45, 9, 22, 0)
s = 187: (0, 32, 81, 21, 20, 21, 80, 30, 71, 14, 19, 0)
s = 188: (0, 36, 38, 13, 17, 16, 53, 21, 54, 12, 24, 0)
s = 189: (0, 72, 29, 11, 15, 13, 40, 33, 108, 20, 26, 0)
s = 190: (0, 27, 88, 20, 16, 17, 57, 17, 111, 15, 35, 0)
s = 191: (0, 27, 29, 13, 16, 17, 42, 29, 64, 13, 25, 0)
s = 192: (0, 57, 42, 14, 18, 20, 68, 17, 73, 13, 28, 0)
s = 193: (0, 42, 43, 20, 22, 22, 62, 22, 61, 16, 34, 0)
s = 194: (0, 48, 52, 13, 15, 23, 59, 25, 111, 8, 27, 0)
s = 195: (0, 29, 39, 15, 16, 24, 63, 18, 67, 19, 20, 0)
s = 196: (0, 63, 75, 11, 14, 29, 29, 17, 97, 15, 21, 0)
s = 197: (0, 37, 32, 14, 12, 14, 57, 19, 72, 14, 40, 0)
s = 198: (0, 32, 35, 20, 18, 26, 33, 24, 87, 12, 30, 0)
s = 199: (0, 41, 54, 10, 26, 13, 56, 40, 77, 10, 34, 0)
s = 200: (0, 44, 37, 12, 17, 14, 57, 25, 36, 18, 26, 0)
************************************************************************
ES/LS-VALUES:
jobnr.   ES(i)    LS(i)
------------------------------------------------------------------------
  0        0        0
  1        0       57
  2        0       63
  3        0       71
  4        5       75
  5        9       73
  6        5       63
  7       12       75
  8       12       71
  9       15       79
 10       12       77
 11       21       81
************************************************************************
BIG-M-VALUES:
M1 = 36, M2 = 286
************************************************************************
